************************************************************************
file with basedata            : j60_46.bas
initial value random generator: 1335903135
************************************************************************
projects                      :  1
jobs (incl. supersource/sink ):  62
horizon                       :  363
RESOURCES
  - renewable                 :  4   R
  - nonrenewable              :  0   N
  - doubly constrained        :  0   D
************************************************************************
PROJECT INFORMATION:
pronr.  #jobs rel.date duedate tardcost  MPM-Time
    1     60      0       72       44       72
************************************************************************
PRECEDENCE RELATIONS:
jobnr.    #modes  #successors   successors
   1        1          3           2   3   4
   2        1          3           5  16  25
   3        1          3           8  19  22
   4        1          3           6   7   9
   5        1          2          37  38
   6        1          3          21  24  30
   7        1          3          14  48  53
   8        1          3          24  26  48
   9        1          2          10  13
  10        1          2          11  17
  11        1          3          12  18  33
  12        1          3          31  46  56
  13        1          2          15  17
  14        1          2          52  60
  15        1          1          22
  16        1          2          42  59
  17        1          2          31  34
  18        1          3          20  26  51
  19        1          1          40
  20        1          1          36
  21        1          2          32  47
  22        1          2          23  28
  23        1          2          38  56
  24        1          2          28  29
  25        1          2          27  30
  26        1          2          39  50
  27        1          2          36  51
  28        1          2          39  44
  29        1          1          35
  30        1          3          35  41  51
  31        1          2          44  49
  32        1          2          33  43
  33        1          1          50
  34        1          1          61
  35        1          3          45  46  54
  36        1          1          41
  37        1          3          40  49  52
  38        1          2          44  46
  39        1          1          45
  40        1          2          41  43
  41        1          2          48  53
  42        1          2          45  57
  43        1          2          60  61
  44        1          1          57
  45        1          1          55
  46        1          2          47  49
  47        1          2          50  60
  48        1          1          55
  49        1          1          55
  50        1          1          59
  51        1          2          54  58
  52        1          1          56
  53        1          1          54
  54        1          1          59
  55        1          1          58
  56        1          1          57
  57        1          1          58
  58        1          1          61
  59        1          1          62
  60        1          1          62
  61        1          1          62
  62        1          0        
************************************************************************
REQUESTS/DURATIONS:
jobnr. mode duration  R 1  R 2  R 3  R 4
------------------------------------------------------------------------
  1      1     0       0    0    0    0
  2      1     6       1    2    5   10
  3      1    10       2    1    1    7
  4      1     9       7    5    8    5
  5      1     9       3    7    2    3
  6      1     9       9   10    9    7
  7      1     1       3    3    6    5
  8      1     7       7    2    3    1
  9      1     5       1    6   10    5
 10      1     3       4    8    1    4
 11      1     9      10   10    2   10
 12      1     8       6    9    9    5
 13      1     4       1    3    6    7
 14      1     8       4    2    6   10
 15      1     7       7    5    2    3
 16      1     8       8    5    6    2
 17      1     6       2    7    6    5
 18      1     6       8    1    6    9
 19      1     7      10    3    7    2
 20      1     8       5    1    3    9
 21      1    10       5    5    6    2
 22      1     7       6    9    3    4
 23      1    10       6    7    7    9
 24      1     6       1    2    6    5
 25      1     8      10    6    4    3
 26      1     1       9    9   10    2
 27      1     4       9    5    3    1
 28      1     1       1    7    7    5
 29      1     8       8    8   10    6
 30      1     3       2    1    6    3
 31      1     1       5    7    4    6
 32      1     8       8    8   10   10
 33      1     8       9    7    5    6
 34      1     9       9    3    7    8
 35      1     6       4    9    5    6
 36      1     6       3    4    1    9
 37      1     9       7    8    3   10
 38      1     7       6    2    3    4
 39      1     3       3    7    4    5
 40      1     2       9    2    2    8
 41      1     6       5    7    2    3
 42      1     9       1    8    7    8
 43      1     9       8    7    4    3
 44      1     5       5    1    7    1
 45      1    10       4   10    9    6
 46      1     4       3    3    4    8
 47      1     4       3    2   10    8
 48      1     3      10    1   10   10
 49      1     5       9    7    8    2
 50      1     8       3    2    1    1
 51      1    10       9    9   10   10
 52      1     1       2    9    7    4
 53      1     8       7   10   10    1
 54      1     3       4   10   10    8
 55      1     9       9    3    9    1
 56      1     2       3    7    2   10
 57      1     7       9    4    2    6
 58      1     1       1    6    5    6
 59      1     5       2    1    8    7
 60      1     3       6    6    6    2
 61      1     4      10    5   10   10
 62      1     0       0    0    0    0
************************************************************************
RESOURCEAVAILABILITIES:
  R 1  R 2  R 3  R 4
   34   36   39   37
************************************************************************
